r=1; % r deve essere >0
s=9; % s deve essere >r
n=5; % numero di righe del cruciverba     
m=7; % numero di colonne del cruciverba  
schema=[| 0,1,0,0,0,0,1       %schema del cruciverba dove le caselle nere sono 
        | 0,0,0,1,0,0,0       % identificate dal numero 1
        | 0,1,0,0,0,0,1
        | 1,1,0,0,0,1,0
        | 0,0,0,1,0,0,0
        |];
orizzontali=[| 2,1,3,4         %definizioni orizzontali
             | 5,2,1,3
             | 6,2,5,3
             | 7,3,3,4
             | 9,4,3,3
             | 11,5,1,3
             | 12,5,5,3
            |];
no=7;             %numero definizioni orizzontali
verticali=[| 1,1,1,3           % definizioni verticali 
           | 2,1,3,5
           | 3,1,5,5
           | 4,1,6,3
           | 8,3,4,2
           | 10,4,7,2
          |];
nv=6;            %numero definizioni verticali
S={6,8,24,28,30,36,42,54,64,70,84,90,96};       %definizioni